c File: flat50_3_0.col
c
c SOURCE: Joseph Culberson (joe@cs.ualberta.ca)
c DESCRIPTION: Quasi-random coloring problem
c              generated with flatness = 0
c                             probability = 0.139
c                             known coloring = 3
c                             random seed = 1589
c              Creation Date:  Tue Jun  9 12:13:00 1998
c Maximum degree = 8 Minimum degree = 1
c p edge 50 115
c cnf created by edge2cnf
p cnf 150 545
-1 -2 0
-1 -3 0
-2 -3 0
1 2 3 0
-4 -5 0
-4 -6 0
-5 -6 0
4 5 6 0
-7 -8 0
-7 -9 0
-8 -9 0
7 8 9 0
-10 -11 0
-10 -12 0
-11 -12 0
10 11 12 0
-13 -14 0
-13 -15 0
-14 -15 0
13 14 15 0
-16 -17 0
-16 -18 0
-17 -18 0
16 17 18 0
-19 -20 0
-19 -21 0
-20 -21 0
19 20 21 0
-22 -23 0
-22 -24 0
-23 -24 0
22 23 24 0
-25 -26 0
-25 -27 0
-26 -27 0
25 26 27 0
-28 -29 0
-28 -30 0
-29 -30 0
28 29 30 0
-31 -32 0
-31 -33 0
-32 -33 0
31 32 33 0
-34 -35 0
-34 -36 0
-35 -36 0
34 35 36 0
-37 -38 0
-37 -39 0
-38 -39 0
37 38 39 0
-40 -41 0
-40 -42 0
-41 -42 0
40 41 42 0
-43 -44 0
-43 -45 0
-44 -45 0
43 44 45 0
-46 -47 0
-46 -48 0
-47 -48 0
46 47 48 0
-49 -50 0
-49 -51 0
-50 -51 0
49 50 51 0
-52 -53 0
-52 -54 0
-53 -54 0
52 53 54 0
-55 -56 0
-55 -57 0
-56 -57 0
55 56 57 0
-58 -59 0
-58 -60 0
-59 -60 0
58 59 60 0
-61 -62 0
-61 -63 0
-62 -63 0
61 62 63 0
-64 -65 0
-64 -66 0
-65 -66 0
64 65 66 0
-67 -68 0
-67 -69 0
-68 -69 0
67 68 69 0
-70 -71 0
-70 -72 0
-71 -72 0
70 71 72 0
-73 -74 0
-73 -75 0
-74 -75 0
73 74 75 0
-76 -77 0
-76 -78 0
-77 -78 0
76 77 78 0
-79 -80 0
-79 -81 0
-80 -81 0
79 80 81 0
-82 -83 0
-82 -84 0
-83 -84 0
82 83 84 0
-85 -86 0
-85 -87 0
-86 -87 0
85 86 87 0
-88 -89 0
-88 -90 0
-89 -90 0
88 89 90 0
-91 -92 0
-91 -93 0
-92 -93 0
91 92 93 0
-94 -95 0
-94 -96 0
-95 -96 0
94 95 96 0
-97 -98 0
-97 -99 0
-98 -99 0
97 98 99 0
-100 -101 0
-100 -102 0
-101 -102 0
100 101 102 0
-103 -104 0
-103 -105 0
-104 -105 0
103 104 105 0
-106 -107 0
-106 -108 0
-107 -108 0
106 107 108 0
-109 -110 0
-109 -111 0
-110 -111 0
109 110 111 0
-112 -113 0
-112 -114 0
-113 -114 0
112 113 114 0
-115 -116 0
-115 -117 0
-116 -117 0
115 116 117 0
-118 -119 0
-118 -120 0
-119 -120 0
118 119 120 0
-121 -122 0
-121 -123 0
-122 -123 0
121 122 123 0
-124 -125 0
-124 -126 0
-125 -126 0
124 125 126 0
-127 -128 0
-127 -129 0
-128 -129 0
127 128 129 0
-130 -131 0
-130 -132 0
-131 -132 0
130 131 132 0
-133 -134 0
-133 -135 0
-134 -135 0
133 134 135 0
-136 -137 0
-136 -138 0
-137 -138 0
136 137 138 0
-139 -140 0
-139 -141 0
-140 -141 0
139 140 141 0
-142 -143 0
-142 -144 0
-143 -144 0
142 143 144 0
-145 -146 0
-145 -147 0
-146 -147 0
145 146 147 0
-148 -149 0
-148 -150 0
-149 -150 0
148 149 150 0
-85 -1 0
-86 -2 0
-87 -3 0
-106 -1 0
-107 -2 0
-108 -3 0
-127 -1 0
-128 -2 0
-129 -3 0
-139 -1 0
-140 -2 0
-141 -3 0
-142 -1 0
-143 -2 0
-144 -3 0
-61 -4 0
-62 -5 0
-63 -6 0
-70 -4 0
-71 -5 0
-72 -6 0
-85 -4 0
-86 -5 0
-87 -6 0
-121 -4 0
-122 -5 0
-123 -6 0
-136 -4 0
-137 -5 0
-138 -6 0
-55 -7 0
-56 -8 0
-57 -9 0
-61 -7 0
-62 -8 0
-63 -9 0
-91 -7 0
-92 -8 0
-93 -9 0
-106 -7 0
-107 -8 0
-108 -9 0
-58 -10 0
-59 -11 0
-60 -12 0
-61 -10 0
-62 -11 0
-63 -12 0
-85 -10 0
-86 -11 0
-87 -12 0
-88 -10 0
-89 -11 0
-90 -12 0
-103 -10 0
-104 -11 0
-105 -12 0
-115 -10 0
-116 -11 0
-117 -12 0
-127 -10 0
-128 -11 0
-129 -12 0
-58 -13 0
-59 -14 0
-60 -15 0
-82 -13 0
-83 -14 0
-84 -15 0
-91 -13 0
-92 -14 0
-93 -15 0
-106 -13 0
-107 -14 0
-108 -15 0
-112 -13 0
-113 -14 0
-114 -15 0
-133 -13 0
-134 -14 0
-135 -15 0
-106 -16 0
-107 -17 0
-108 -18 0
-112 -16 0
-113 -17 0
-114 -18 0
-52 -19 0
-53 -20 0
-54 -21 0
-70 -19 0
-71 -20 0
-72 -21 0
-82 -19 0
-83 -20 0
-84 -21 0
-94 -19 0
-95 -20 0
-96 -21 0
-133 -19 0
-134 -20 0
-135 -21 0
-139 -19 0
-140 -20 0
-141 -21 0
-145 -19 0
-146 -20 0
-147 -21 0
-148 -19 0
-149 -20 0
-150 -21 0
-79 -22 0
-80 -23 0
-81 -24 0
-112 -22 0
-113 -23 0
-114 -24 0
-55 -25 0
-56 -26 0
-57 -27 0
-64 -25 0
-65 -26 0
-66 -27 0
-94 -25 0
-95 -26 0
-96 -27 0
-97 -25 0
-98 -26 0
-99 -27 0
-115 -25 0
-116 -26 0
-117 -27 0
-136 -25 0
-137 -26 0
-138 -27 0
-139 -25 0
-140 -26 0
-141 -27 0
-142 -25 0
-143 -26 0
-144 -27 0
-67 -28 0
-68 -29 0
-69 -30 0
-85 -28 0
-86 -29 0
-87 -30 0
-103 -28 0
-104 -29 0
-105 -30 0
-52 -31 0
-53 -32 0
-54 -33 0
-91 -34 0
-92 -35 0
-93 -36 0
-100 -34 0
-101 -35 0
-102 -36 0
-127 -34 0
-128 -35 0
-129 -36 0
-133 -34 0
-134 -35 0
-135 -36 0
-136 -34 0
-137 -35 0
-138 -36 0
-148 -34 0
-149 -35 0
-150 -36 0
-70 -37 0
-71 -38 0
-72 -39 0
-76 -37 0
-77 -38 0
-78 -39 0
-55 -40 0
-56 -41 0
-57 -42 0
-64 -40 0
-65 -41 0
-66 -42 0
-115 -40 0
-116 -41 0
-117 -42 0
-136 -40 0
-137 -41 0
-138 -42 0
-61 -43 0
-62 -44 0
-63 -45 0
-73 -43 0
-74 -44 0
-75 -45 0
-76 -43 0
-77 -44 0
-78 -45 0
-118 -43 0
-119 -44 0
-120 -45 0
-145 -43 0
-146 -44 0
-147 -45 0
-64 -46 0
-65 -47 0
-66 -48 0
-70 -46 0
-71 -47 0
-72 -48 0
-100 -46 0
-101 -47 0
-102 -48 0
-130 -46 0
-131 -47 0
-132 -48 0
-55 -49 0
-56 -50 0
-57 -51 0
-88 -49 0
-89 -50 0
-90 -51 0
-124 -49 0
-125 -50 0
-126 -51 0
-127 -49 0
-128 -50 0
-129 -51 0
-133 -49 0
-134 -50 0
-135 -51 0
-133 -52 0
-134 -53 0
-135 -54 0
-118 -55 0
-119 -56 0
-120 -57 0
-136 -55 0
-137 -56 0
-138 -57 0
-142 -55 0
-143 -56 0
-144 -57 0
-121 -58 0
-122 -59 0
-123 -60 0
-124 -58 0
-125 -59 0
-126 -60 0
-133 -58 0
-134 -59 0
-135 -60 0
-145 -58 0
-146 -59 0
-147 -60 0
-103 -64 0
-104 -65 0
-105 -66 0
-121 -64 0
-122 -65 0
-123 -66 0
-127 -67 0
-128 -68 0
-129 -69 0
-133 -67 0
-134 -68 0
-135 -69 0
-145 -67 0
-146 -68 0
-147 -69 0
-148 -67 0
-149 -68 0
-150 -69 0
-109 -70 0
-110 -71 0
-111 -72 0
-130 -70 0
-131 -71 0
-132 -72 0
-127 -76 0
-128 -77 0
-129 -78 0
-109 -79 0
-110 -80 0
-111 -81 0
-136 -79 0
-137 -80 0
-138 -81 0
-103 -82 0
-104 -83 0
-105 -84 0
-127 -82 0
-128 -83 0
-129 -84 0
-130 -82 0
-131 -83 0
-132 -84 0
-115 -85 0
-116 -86 0
-117 -87 0
-118 -85 0
-119 -86 0
-120 -87 0
-127 -85 0
-128 -86 0
-129 -87 0
-142 -88 0
-143 -89 0
-144 -90 0
-103 -91 0
-104 -92 0
-105 -93 0
-106 -91 0
-107 -92 0
-108 -93 0
-109 -91 0
-110 -92 0
-111 -93 0
-145 -91 0
-146 -92 0
-147 -93 0
-106 -94 0
-107 -95 0
-108 -96 0
-109 -94 0
-110 -95 0
-111 -96 0
-115 -94 0
-116 -95 0
-117 -96 0
-106 -97 0
-107 -98 0
-108 -99 0
-121 -97 0
-122 -98 0
-123 -99 0
-112 -100 0
-113 -101 0
-114 -102 0
-121 -100 0
-122 -101 0
-123 -102 0
-136 -100 0
-137 -101 0
-138 -102 0
